# Solution for model micodag
# Objective value = 1.8010911911197116e+01
s_0_1 0
s_1_0 0
s_0_2 0
s_2_0 0
s_0_3 0
s_3_0 0
s_1_2 0
s_2_1 0
s_1_3 0
s_3_1 1.3904578822077118e+00
s_2_3 0
s_3_2 1.3297961058391774e+00
s_3_4 0
s_4_3 7.8563864416439522e-01
s_4_5 0
s_5_4 3.7429009947708991e-01
s_4_11 0
s_11_4 4.3647371819734371e-01
s_4_14 0
s_14_4 0
s_5_6 0
s_6_5 8.1096711570589441e-01
s_5_7 0
s_7_5 0
s_5_9 0
s_9_5 1.7627111201393042e-01
s_5_11 0
s_11_5 4.1798693228130723e-01
s_6_7 0
s_7_6 0
s_6_9 0
s_9_6 0
s_6_10 0
s_10_6 3.8601603587074873e-01
s_7_8 0
s_8_7 5.2142809856577150e+00
s_7_9 0
s_9_7 5.2142809856577150e+00
s_9_19 0
s_19_9 7.6126377072239926e-01
s_10_16 0
s_16_10 0
s_10_17 0
s_17_10 1.2638859577719730e+00
s_11_12 0
s_12_11 1.2124615142160646e+00
s_11_13 0
s_13_11 4.3982259041794691e-01
s_11_14 1.0025777017730775e+00
s_14_11 0
s_13_14 0
s_14_13 0
s_13_15 0
s_15_13 2.7190483886655237e-01
s_14_15 0
s_15_14 2.2562814727025948e-01
s_16_17 0
s_17_16 0.788657766159707
s_17_18 0
s_18_17 5.2142809856577150e+00
s_0_0 1.0160112201735911e+00
s_1_1 9.3059307285966852e-01
s_2_2 1.8458249273171363e+00
s_3_3 2.1235089408353227e+00
s_4_4 1.9429042208306493e+00
s_5_5 1.0123234221759816e+00
s_6_6 2.1169371587539740e+00
s_7_7 5.2142809856577150e+00
s_8_8 9.1750965478397628e-01
s_9_9 8.7397939789290557e-01
s_10_10 7.1554392495889729e-01
s_11_11 1.9779989160635290e+00
s_12_12 1.8726887224254090e+00
s_13_13 6.1475320386202625e-01
s_14_14 8.2745290220839784e-01
s_15_15 7.4272817420745962e-01
s_16_16 6.3303984356178411e-01
s_17_17 5.2142809856577150e+00
s_18_18 9.6100171106646215e-01
s_19_19 2.0610539982463325e+00
Gamma_0_0 1.0079738191905543e+00
Gamma_0_1 0
Gamma_0_2 0
Gamma_0_3 0
Gamma_0_4 0
Gamma_0_5 0
Gamma_0_6 0
Gamma_0_7 0
Gamma_0_8 0
Gamma_0_9 0
Gamma_0_10 0
Gamma_0_11 0
Gamma_0_12 0
Gamma_0_13 0
Gamma_0_14 0
Gamma_0_15 0
Gamma_0_16 0
Gamma_0_17 0
Gamma_0_18 0
Gamma_0_19 0
Gamma_1_0 0
Gamma_1_1 9.6467252104518275e-01
Gamma_1_2 0
Gamma_1_3 0
Gamma_1_4 0
Gamma_1_5 0
Gamma_1_6 0
Gamma_1_7 0
Gamma_1_8 0
Gamma_1_9 0
Gamma_1_10 0
Gamma_1_11 0
Gamma_1_12 0
Gamma_1_13 0
Gamma_1_14 0
Gamma_1_15 0
Gamma_1_16 0
Gamma_1_17 0
Gamma_1_18 0
Gamma_1_19 0
Gamma_2_0 0
Gamma_2_1 0
Gamma_2_2 1.3586113967272382e+00
Gamma_2_3 0
Gamma_2_4 0
Gamma_2_5 0
Gamma_2_6 0
Gamma_2_7 0
Gamma_2_8 0
Gamma_2_9 0
Gamma_2_10 0
Gamma_2_11 0
Gamma_2_12 0
Gamma_2_13 0
Gamma_2_14 0
Gamma_2_15 0
Gamma_2_16 0
Gamma_2_17 0
Gamma_2_18 0
Gamma_2_19 0
Gamma_3_0 0
Gamma_3_1 1.1791767815759060e+00
Gamma_3_2 1.1531678567490413e+00
Gamma_3_3 1.4572264548913880e+00
Gamma_3_4 0
Gamma_3_5 0
Gamma_3_6 0
Gamma_3_7 0
Gamma_3_8 0
Gamma_3_9 0
Gamma_3_10 0
Gamma_3_11 0
Gamma_3_12 0
Gamma_3_13 0
Gamma_3_14 0
Gamma_3_15 0
Gamma_3_16 0
Gamma_3_17 0
Gamma_3_18 0
Gamma_3_19 0
Gamma_4_0 0
Gamma_4_1 0
Gamma_4_2 0
Gamma_4_3 8.8636259181240029e-01
Gamma_4_4 1.3938809923485758e+00
Gamma_4_5 0
Gamma_4_6 0
Gamma_4_7 0
Gamma_4_8 0
Gamma_4_9 0
Gamma_4_10 0
Gamma_4_11 0
Gamma_4_12 0
Gamma_4_13 0
Gamma_4_14 0
Gamma_4_15 0
Gamma_4_16 0
Gamma_4_17 0
Gamma_4_18 0
Gamma_4_19 0
Gamma_5_0 0
Gamma_5_1 0
Gamma_5_2 0
Gamma_5_3 0
Gamma_5_4 -6.1179252976568055e-01
Gamma_5_5 1.0061428438228750e+00
Gamma_5_6 0
Gamma_5_7 0
Gamma_5_8 0
Gamma_5_9 0
Gamma_5_10 0
Gamma_5_11 0
Gamma_5_12 0
Gamma_5_13 0
Gamma_5_14 0
Gamma_5_15 0
Gamma_5_16 0
Gamma_5_17 0
Gamma_5_18 0
Gamma_5_19 0
Gamma_6_0 0
Gamma_6_1 0
Gamma_6_2 0
Gamma_6_3 0
Gamma_6_4 0
Gamma_6_5 9.0053712622295334e-01
Gamma_6_6 1.4549698136916704e+00
Gamma_6_7 0
Gamma_6_8 0
Gamma_6_9 0
Gamma_6_10 0
Gamma_6_11 0
Gamma_6_12 0
Gamma_6_13 0
Gamma_6_14 0
Gamma_6_15 0
Gamma_6_16 0
Gamma_6_17 0
Gamma_6_18 0
Gamma_6_19 0
Gamma_7_0 0
Gamma_7_1 0
Gamma_7_2 0
Gamma_7_3 0
Gamma_7_4 0
Gamma_7_5 0
Gamma_7_6 0
Gamma_7_7 9.6650689721292948e-01
Gamma_7_8 0
Gamma_7_9 0
Gamma_7_10 0
Gamma_7_11 0
Gamma_7_12 0
Gamma_7_13 0
Gamma_7_14 0
Gamma_7_15 0
Gamma_7_16 0
Gamma_7_17 0
Gamma_7_18 0
Gamma_7_19 0
Gamma_8_0 0
Gamma_8_1 0
Gamma_8_2 0
Gamma_8_3 0
Gamma_8_4 0
Gamma_8_5 0
Gamma_8_6 0
Gamma_8_7 -7.5777153211224013e-01
Gamma_8_8 9.5786724277635515e-01
Gamma_8_9 0
Gamma_8_10 0
Gamma_8_11 0
Gamma_8_12 0
Gamma_8_13 0
Gamma_8_14 0
Gamma_8_15 0
Gamma_8_16 0
Gamma_8_17 0
Gamma_8_18 0
Gamma_8_19 0
Gamma_9_0 0
Gamma_9_1 0
Gamma_9_2 0
Gamma_9_3 0
Gamma_9_4 0
Gamma_9_5 4.1984653388343096e-01
Gamma_9_6 0
Gamma_9_7 -0.697893677954891
Gamma_9_8 0
Gamma_9_9 9.3486865274909425e-01
Gamma_9_10 0
Gamma_9_11 0
Gamma_9_12 0
Gamma_9_13 0
Gamma_9_14 0
Gamma_9_15 0
Gamma_9_16 0
Gamma_9_17 0
Gamma_9_18 0
Gamma_9_19 0
Gamma_10_0 0
Gamma_10_1 0
Gamma_10_2 0
Gamma_10_3 0
Gamma_10_4 0
Gamma_10_5 0
Gamma_10_6 -6.2130188786993867e-01
Gamma_10_7 0
Gamma_10_8 0
Gamma_10_9 0
Gamma_10_10 8.4589829468967381e-01
Gamma_10_11 0
Gamma_10_12 0
Gamma_10_13 0
Gamma_10_14 0
Gamma_10_15 0
Gamma_10_16 0
Gamma_10_17 0
Gamma_10_18 0
Gamma_10_19 0
Gamma_11_0 0
Gamma_11_1 0
Gamma_11_2 0
Gamma_11_3 0
Gamma_11_4 -6.6066157614723187e-01
Gamma_11_5 -0.646519088876197
Gamma_11_6 0
Gamma_11_7 0
Gamma_11_8 0
Gamma_11_9 0
Gamma_11_10 0
Gamma_11_11 1.4064134939851540e+00
Gamma_11_12 0
Gamma_11_13 0
Gamma_11_14 1.0012880213869926e+00
Gamma_11_15 0
Gamma_11_16 0
Gamma_11_17 0
Gamma_11_18 0
Gamma_11_19 0
Gamma_12_0 0
Gamma_12_1 0
Gamma_12_2 0
Gamma_12_3 0
Gamma_12_4 0
Gamma_12_5 0
Gamma_12_6 0
Gamma_12_7 0
Gamma_12_8 0
Gamma_12_9 0
Gamma_12_10 0
Gamma_12_11 -1.1011183016443171e+00
Gamma_12_12 1.3684621742764427e+00
Gamma_12_13 0
Gamma_12_14 0
Gamma_12_15 0
Gamma_12_16 0
Gamma_12_17 0
Gamma_12_18 0
Gamma_12_19 0
Gamma_13_0 0
Gamma_13_1 0
Gamma_13_2 0
Gamma_13_3 0
Gamma_13_4 0
Gamma_13_5 0
Gamma_13_6 0
Gamma_13_7 0
Gamma_13_8 0
Gamma_13_9 0
Gamma_13_10 0
Gamma_13_11 -6.6319121708444517e-01
Gamma_13_12 0
Gamma_13_13 0.784061989808221
Gamma_13_14 0
Gamma_13_15 0
Gamma_13_16 0
Gamma_13_17 0
Gamma_13_18 0
Gamma_13_19 0
Gamma_14_0 0
Gamma_14_1 0
Gamma_14_2 0
Gamma_14_3 0
Gamma_14_4 0
Gamma_14_5 0
Gamma_14_6 0
Gamma_14_7 0
Gamma_14_8 0
Gamma_14_9 0
Gamma_14_10 0
Gamma_14_11 0
Gamma_14_12 0
Gamma_14_13 0
Gamma_14_14 9.0964438227716127e-01
Gamma_14_15 0
Gamma_14_16 0
Gamma_14_17 0
Gamma_14_18 0
Gamma_14_19 0
Gamma_15_0 0
Gamma_15_1 0
Gamma_15_2 0
Gamma_15_3 0
Gamma_15_4 0
Gamma_15_5 0
Gamma_15_6 0
Gamma_15_7 0
Gamma_15_8 0
Gamma_15_9 0
Gamma_15_10 0
Gamma_15_11 0
Gamma_15_12 0
Gamma_15_13 -5.2144495286324666e-01
Gamma_15_14 4.7500331290451048e-01
Gamma_15_15 8.6181678691440022e-01
Gamma_15_16 0
Gamma_15_17 0
Gamma_15_18 0
Gamma_15_19 0
Gamma_16_0 0
Gamma_16_1 0
Gamma_16_2 0
Gamma_16_3 0
Gamma_16_4 0
Gamma_16_5 0
Gamma_16_6 0
Gamma_16_7 0
Gamma_16_8 0
Gamma_16_9 0
Gamma_16_10 0
Gamma_16_11 0
Gamma_16_12 0
Gamma_16_13 0
Gamma_16_14 0
Gamma_16_15 0
Gamma_16_16 7.9563801038021353e-01
Gamma_16_17 0
Gamma_16_18 0
Gamma_16_19 0
Gamma_17_0 0
Gamma_17_1 0
Gamma_17_2 0
Gamma_17_3 0
Gamma_17_4 0
Gamma_17_5 0
Gamma_17_6 0
Gamma_17_7 0
Gamma_17_8 0
Gamma_17_9 0
Gamma_17_10 -1.1242268266555344e+00
Gamma_17_11 0
Gamma_17_12 0
Gamma_17_13 0
Gamma_17_14 0
Gamma_17_15 0
Gamma_17_16 -8.8806405521207066e-01
Gamma_17_17 1.4431848107795080e+00
Gamma_17_18 0
Gamma_17_19 0
Gamma_18_0 0
Gamma_18_1 0
Gamma_18_2 0
Gamma_18_3 0
Gamma_18_4 0
Gamma_18_5 0
Gamma_18_6 0
Gamma_18_7 0
Gamma_18_8 0
Gamma_18_9 0
Gamma_18_10 0
Gamma_18_11 0
Gamma_18_12 0
Gamma_18_13 0
Gamma_18_14 0
Gamma_18_15 0
Gamma_18_16 0
Gamma_18_17 7.1425842237842019e-01
Gamma_18_18 9.8030694737233359e-01
Gamma_18_19 0
Gamma_19_0 0
Gamma_19_1 0
Gamma_19_2 0
Gamma_19_3 0
Gamma_19_4 0
Gamma_19_5 0
Gamma_19_6 0
Gamma_19_7 0
Gamma_19_8 0
Gamma_19_9 8.7250430985892591e-01
Gamma_19_10 0
Gamma_19_11 0
Gamma_19_12 0
Gamma_19_13 0
Gamma_19_14 0
Gamma_19_15 0
Gamma_19_16 0
Gamma_19_17 0
Gamma_19_18 0
Gamma_19_19 1.4356371401737740e+00
psi_0 0
psi_1 7
psi_2 7
psi_3 6
psi_4 5
psi_5 4
psi_6 3
psi_7 2
psi_8 0
psi_9 1
psi_10 2
psi_11 2
psi_12 0
psi_13 1
psi_14 3
psi_15 0
psi_16 2
psi_17 1
psi_18 0
psi_19 0
g_0_0 0
g_0_1 0
g_0_2 0
g_0_3 0
g_0_4 0
g_0_5 0
g_0_6 0
g_0_7 0
g_0_8 0
g_0_9 0
g_0_10 0
g_0_11 0
g_0_12 0
g_0_13 0
g_0_14 0
g_0_15 0
g_0_16 0
g_0_17 0
g_0_18 0
g_0_19 0
g_1_0 0
g_1_1 0
g_1_2 0
g_1_3 0
g_1_4 0
g_1_5 0
g_1_6 0
g_1_7 0
g_1_8 0
g_1_9 0
g_1_10 0
g_1_11 0
g_1_12 0
g_1_13 0
g_1_14 0
g_1_15 0
g_1_16 0
g_1_17 0
g_1_18 0
g_1_19 0
g_2_0 0
g_2_1 0
g_2_2 0
g_2_3 0
g_2_4 0
g_2_5 0
g_2_6 0
g_2_7 0
g_2_8 0
g_2_9 0
g_2_10 0
g_2_11 0
g_2_12 0
g_2_13 0
g_2_14 0
g_2_15 0
g_2_16 0
g_2_17 0
g_2_18 0
g_2_19 0
g_3_0 0
g_3_1 1
g_3_2 1
g_3_3 0
g_3_4 0
g_3_5 0
g_3_6 0
g_3_7 0
g_3_8 0
g_3_9 0
g_3_10 0
g_3_11 0
g_3_12 0
g_3_13 0
g_3_14 0
g_3_15 0
g_3_16 0
g_3_17 0
g_3_18 0
g_3_19 0
g_4_0 0
g_4_1 0
g_4_2 0
g_4_3 1
g_4_4 0
g_4_5 0
g_4_6 0
g_4_7 0
g_4_8 0
g_4_9 0
g_4_10 0
g_4_11 0
g_4_12 0
g_4_13 0
g_4_14 0
g_4_15 0
g_4_16 0
g_4_17 0
g_4_18 0
g_4_19 0
g_5_0 0
g_5_1 0
g_5_2 0
g_5_3 0
g_5_4 1
g_5_5 0
g_5_6 0
g_5_7 0
g_5_8 0
g_5_9 0
g_5_10 0
g_5_11 0
g_5_12 0
g_5_13 0
g_5_14 0
g_5_15 0
g_5_16 0
g_5_17 0
g_5_18 0
g_5_19 0
g_6_0 0
g_6_1 0
g_6_2 0
g_6_3 0
g_6_4 0
g_6_5 1
g_6_6 0
g_6_7 0
g_6_8 0
g_6_9 0
g_6_10 0
g_6_11 0
g_6_12 0
g_6_13 0
g_6_14 0
g_6_15 0
g_6_16 0
g_6_17 0
g_6_18 0
g_6_19 0
g_7_0 0
g_7_1 0
g_7_2 0
g_7_3 0
g_7_4 0
g_7_5 0
g_7_6 0
g_7_7 0
g_7_8 0
g_7_9 0
g_7_10 0
g_7_11 0
g_7_12 0
g_7_13 0
g_7_14 0
g_7_15 0
g_7_16 0
g_7_17 0
g_7_18 0
g_7_19 0
g_8_0 0
g_8_1 0
g_8_2 0
g_8_3 0
g_8_4 0
g_8_5 0
g_8_6 0
g_8_7 1
g_8_8 0
g_8_9 0
g_8_10 0
g_8_11 0
g_8_12 0
g_8_13 0
g_8_14 0
g_8_15 0
g_8_16 0
g_8_17 0
g_8_18 0
g_8_19 0
g_9_0 0
g_9_1 0
g_9_2 0
g_9_3 0
g_9_4 0
g_9_5 1
g_9_6 0
g_9_7 1
g_9_8 0
g_9_9 0
g_9_10 0
g_9_11 0
g_9_12 0
g_9_13 0
g_9_14 0
g_9_15 0
g_9_16 0
g_9_17 0
g_9_18 0
g_9_19 0
g_10_0 0
g_10_1 0
g_10_2 0
g_10_3 0
g_10_4 0
g_10_5 0
g_10_6 1
g_10_7 0
g_10_8 0
g_10_9 0
g_10_10 0
g_10_11 0
g_10_12 0
g_10_13 0
g_10_14 0
g_10_15 0
g_10_16 0
g_10_17 0
g_10_18 0
g_10_19 0
g_11_0 0
g_11_1 0
g_11_2 0
g_11_3 0
g_11_4 1
g_11_5 1
g_11_6 0
g_11_7 0
g_11_8 0
g_11_9 0
g_11_10 0
g_11_11 0
g_11_12 0
g_11_13 0
g_11_14 1
g_11_15 0
g_11_16 0
g_11_17 0
g_11_18 0
g_11_19 0
g_12_0 0
g_12_1 0
g_12_2 0
g_12_3 0
g_12_4 0
g_12_5 0
g_12_6 0
g_12_7 0
g_12_8 0
g_12_9 0
g_12_10 0
g_12_11 1
g_12_12 0
g_12_13 0
g_12_14 0
g_12_15 0
g_12_16 0
g_12_17 0
g_12_18 0
g_12_19 0
g_13_0 0
g_13_1 0
g_13_2 0
g_13_3 0
g_13_4 0
g_13_5 0
g_13_6 0
g_13_7 0
g_13_8 0
g_13_9 0
g_13_10 0
g_13_11 1
g_13_12 0
g_13_13 0
g_13_14 0
g_13_15 0
g_13_16 0
g_13_17 0
g_13_18 0
g_13_19 0
g_14_0 0
g_14_1 0
g_14_2 0
g_14_3 0
g_14_4 0
g_14_5 0
g_14_6 0
g_14_7 0
g_14_8 0
g_14_9 0
g_14_10 0
g_14_11 0
g_14_12 0
g_14_13 0
g_14_14 0
g_14_15 0
g_14_16 0
g_14_17 0
g_14_18 0
g_14_19 0
g_15_0 0
g_15_1 0
g_15_2 0
g_15_3 0
g_15_4 0
g_15_5 0
g_15_6 0
g_15_7 0
g_15_8 0
g_15_9 0
g_15_10 0
g_15_11 0
g_15_12 0
g_15_13 1
g_15_14 1
g_15_15 0
g_15_16 0
g_15_17 0
g_15_18 0
g_15_19 0
g_16_0 0
g_16_1 0
g_16_2 0
g_16_3 0
g_16_4 0
g_16_5 0
g_16_6 0
g_16_7 0
g_16_8 0
g_16_9 0
g_16_10 0
g_16_11 0
g_16_12 0
g_16_13 0
g_16_14 0
g_16_15 0
g_16_16 0
g_16_17 0
g_16_18 0
g_16_19 0
g_17_0 0
g_17_1 0
g_17_2 0
g_17_3 0
g_17_4 0
g_17_5 0
g_17_6 0
g_17_7 0
g_17_8 0
g_17_9 0
g_17_10 1
g_17_11 0
g_17_12 0
g_17_13 0
g_17_14 0
g_17_15 0
g_17_16 1
g_17_17 0
g_17_18 0
g_17_19 0
g_18_0 0
g_18_1 0
g_18_2 0
g_18_3 0
g_18_4 0
g_18_5 0
g_18_6 0
g_18_7 0
g_18_8 0
g_18_9 0
g_18_10 0
g_18_11 0
g_18_12 0
g_18_13 0
g_18_14 0
g_18_15 0
g_18_16 0
g_18_17 1
g_18_18 0
g_18_19 0
g_19_0 0
g_19_1 0
g_19_2 0
g_19_3 0
g_19_4 0
g_19_5 0
g_19_6 0
g_19_7 0
g_19_8 0
g_19_9 1
g_19_10 0
g_19_11 0
g_19_12 0
g_19_13 0
g_19_14 0
g_19_15 0
g_19_16 0
g_19_17 0
g_19_18 0
g_19_19 0
T_0 -1.5884392573255468e-02
T_1 7.1933183334877526e-02
T_2 -6.1292629264336540e-01
T_3 -7.5306988118630613e-01
T_4 -6.6418387470301354e-01
T_5 -1.2248106938599790e-02
T_6 -7.4997030760916061e-01
T_7 6.8133688161921668e-02
T_8 0.0860921761834561
T_9 1.3469847580934413e-01
T_10 3.3471229129148128e-01
T_11 -6.8208568520417145e-01
T_12 -6.2737521767263615e-01
T_13 4.8653438624910450e-01
T_14 1.8940308911092529e-01
T_15 2.9742515018398308e-01
T_16 0.457221914803398
T_17 -7.3370469117845971e-01
T_18 3.9779089507220533e-02
T_19 -7.2321750158758391e-01
